p cnf 14 23
-14 12 -11 0
14 12 -4 0
-14 -10 6 0
-14 10 5 0
-14 -9 2 0
-13 11 -10 0
13 11 8 0
13 -10 -9 0
-13 9 -7 0
13 -6 -4 0
12 -11 7 0
-12 -10 -3 0
12 7 6 0
12 7 -6 0
12 -2 1 0
-11 8 -7 0
-10 -8 -7 0
10 8 7 0
-10 -3 -1 0
-9 -8 7 0
-9 8 4 0
8 6 -4 0
7 -6 -2 0
